(set-option :print-success false)
(set-logic QF_UF)
(declare-sort x44 0)
(declare-sort x112 0)
(declare-fun x20 (x112 x112) x112)
(declare-fun x16 () x112)
(declare-fun x98 () x112)
(declare-fun x151 () x112)
(declare-fun x51 () x112)
(declare-fun x136 (x112 x112) x112)
(declare-fun x95 () x112)
(assert (let ((x58 (x136 x95 x98)) (x79 (x136 x98 x95)) (x11 (x136 x95 x151)) (x63 (x136 x151 x151)) (x30 (x136 x151 x16)) (x135 (x136 x16 x95)) (x159 (x136 x16 x16)) (x94 (x136 x151 x51)) (x87 (x136 x95 x95)) (x97 (x136 x151 x95)) (x130 (x136 x151 x98)) (x123 (x136 x98 x151)) (x69 (x136 x98 x98)) (x77 (x136 x51 x151)) (x78 (x136 x95 x51)) (x83 (x136 x98 x16)) (x82 (x136 x16 x98)) (x42 (x136 x51 x95)) (x139 (x136 x16 x151)) (x2 (x136 x16 x51)) (x29 (x136 x51 x51)) (x84 (x136 x51 x16)) (x111 (x136 x98 x51)) (x27 (x136 x51 x98)) (x81 (x136 x95 x16))) (and (and (and (and (and (and (and (not (= x27 x58)) (and (and (not (= x58 x130)) (and (not (= x27 x82)) (and (and (not (= x130 x82)) (not (= x82 x58))) (not (= x69 x82))))) (not (= x69 x58)))) (not (= x69 x130))) (not (= x130 x27))) (not (= x27 x69))) (and (and (and (not (= x77 x63)) (and (not (= x63 x123)) (and (and (and (not (= x11 x63)) (and (not (= x139 x77)) (and (not (= x123 x139)) (and (not (= x139 x63)) (not (= x11 x139)))))) (not (= x123 x11))) (not (= x11 x77))))) (not (= x77 x123))) (and (and (and (not (= x30 x84)) (and (and (and (and (and (not (= x84 x159)) (and (not (= x83 x159)) (and (not (= x159 x81)) (not (= x30 x159))))) (not (= x30 x81))) (not (= x83 x81))) (not (= x84 x81))) (not (= x83 x30)))) (not (= x83 x84))) (and (and (and (and (and (not (= x79 x87)) (and (and (and (not (= x135 x79)) (and (not (= x135 x87)) (not (= x135 x97)))) (not (= x135 x42))) (not (= x97 x87)))) (not (= x87 x42))) (not (= x79 x97))) (not (= x42 x97))) (not (= x42 x79)))))) (and (not (= x29 x111)) (and (not (= x94 x29)) (and (not (= x111 x94)) (and (and (and (and (not (= x2 x29)) (and (and (not (= x2 x94)) (not (= x2 x78))) (not (= x2 x111)))) (not (= x78 x94))) (not (= x78 x111))) (not (= x29 x78))))))) (and (and (and (not (= x69 x111)) (and (not (= x123 x111)) (and (not (= x69 x123)) (and (not (= x79 x111)) (and (and (not (= x123 x79)) (and (and (not (= x69 x83)) (and (not (= x83 x123)) (not (= x83 x79)))) (not (= x111 x83)))) (not (= x69 x79))))))) (and (and (and (and (and (not (= x82 x139)) (and (and (and (not (= x139 x135)) (and (not (= x159 x2)) (and (and (not (= x135 x159)) (not (= x159 x139))) (not (= x159 x82))))) (not (= x82 x135))) (not (= x2 x135)))) (not (= x2 x139))) (not (= x82 x2))) (and (and (not (= x11 x78)) (and (and (and (and (not (= x11 x87)) (and (not (= x81 x78)) (and (not (= x81 x58)) (and (not (= x87 x81)) (not (= x81 x11)))))) (not (= x87 x58))) (not (= x78 x87))) (not (= x11 x58)))) (not (= x58 x78)))) (and (not (= x94 x130)) (and (not (= x94 x63)) (and (and (and (and (not (= x63 x97)) (and (and (and (not (= x30 x63)) (not (= x97 x30))) (not (= x130 x30))) (not (= x94 x30)))) (not (= x130 x97))) (not (= x97 x94))) (not (= x63 x130))))))) (and (not (= x27 x29)) (and (not (= x77 x29)) (and (and (and (and (and (and (and (not (= x77 x84)) (not (= x42 x84))) (not (= x84 x27))) (not (= x84 x29))) (not (= x77 x42))) (not (= x42 x27))) (not (= x29 x42))) (not (= x77 x27)))))))))
(assert (let ((x135 (x136 x95 x151)) (x123 (x136 x98 x95)) (x97 (x136 x151 x95)) (x130 (x136 x95 x51)) (x42 (x136 x16 x98)) (x111 (x136 x51 x98)) (x29 (not (= x51 (x136 x51 x51)))) (x30 (x136 x95 x16)) (x11 (x136 x151 x98)) (x77 (x136 x98 x151)) (x79 (not (= x151 (x136 x151 x151)))) (x63 (x136 x98 x16)) (x82 (not (= x98 (x136 x98 x98)))) (x78 (x136 x51 x95)) (x27 (x136 x98 x51)) (x58 (x136 x16 x51)) (x84 (x136 x16 x151)) (x81 (x136 x16 x95)) (x94 (x136 x51 x151)) (x87 (x136 x151 x16)) (x83 (not (= (x136 x95 x95) x95))) (x69 (x136 x151 x51)) (x139 (x136 x95 x98)) (x2 (x136 x51 x16)) (x159 (not (= (x136 x16 x16) x16)))) (or (and (and (and (not (= x98 x111)) (and (not (= x151 x94)) (and (not (= x78 x95)) (not (= x16 x2))))) x29) (and x29 (and (and (and (not (= x58 x16)) (not (= x95 x130))) (not (= x69 x151))) (not (= x27 x98))))) (or (and (and (not (= x27 x51)) (and x82 (and (not (= x151 x77)) (and (not (= x63 x16)) (not (= x95 x123)))))) (and (and x82 (and (and (not (= x95 x139)) (not (= x42 x16))) (not (= x11 x151)))) (not (= x51 x111)))) (or (and (and (and (and x79 (and (not (= x87 x16)) (not (= x97 x95)))) (not (= x98 x11))) (not (= x51 x69))) (and (and (not (= x98 x77)) (and x79 (and (not (= x16 x84)) (not (= x95 x135))))) (not (= x94 x51)))) (or (and (and (not (= x51 x2)) (and (not (= x63 x98)) (and (and (not (= x30 x95)) x159) (not (= x87 x151))))) (and (and (not (= x98 x42)) (and (and (not (= x95 x81)) x159) (not (= x84 x151)))) (not (= x51 x58)))) (and (and (not (= x51 x130)) (and (and (not (= x135 x151)) (and x83 (not (= x30 x16)))) (not (= x139 x98)))) (and (not (= x51 x78)) (and (not (= x123 x98)) (and (not (= x151 x97)) (and x83 (not (= x81 x16)))))))))))))
(assert (let ((x159 (x136 x16 x16)) (x123 (x136 x98 x151)) (x79 (x136 x151 x151)) (x29 (x136 x51 x51)) (x11 (x136 x98 x95)) (x63 (x136 x95 x98)) (x83 (x136 x95 x95)) (x81 (x136 x95 x16)) (x77 (x136 x151 x98)) (x84 (x136 x151 x16)) (x82 (x136 x98 x98)) (x130 (x136 x16 x51)) (x87 (x136 x151 x95)) (x111 (x136 x98 x51)) (x42 (x136 x98 x16)) (x69 (x136 x51 x95)) (x94 (x136 x51 x98)) (x139 (x136 x16 x98)) (x30 (x136 x16 x95)) (x97 (x136 x95 x151)) (x27 (x136 x95 x51)) (x58 (x136 x51 x16)) (x78 (x136 x151 x51)) (x2 (x136 x51 x151)) (x135 (x136 x16 x151))) (and (and (and (or (or (or (not (= x79 x79)) (or (not (= x135 x84)) (not (= x87 x97)))) (not (= x77 x123))) (not (= x2 x78))) (and (or (not (= x58 x130)) (or (not (= x139 x42)) (or (or (not (= x159 x159)) (not (= x81 x30))) (not (= x135 x84))))) (or (or (not (= x63 x11)) (or (or (not (= x83 x83)) (not (= x81 x30))) (not (= x97 x87)))) (not (= x69 x27))))) (or (or (or (or (not (= x139 x42)) (not (= x11 x63))) (not (= x123 x77))) (not (= x82 x82))) (not (= x94 x111)))) (or (not (= x29 x29)) (or (or (not (= x2 x78)) (or (not (= x27 x69)) (not (= x58 x130)))) (not (= x94 x111)))))))
(assert (and (and (and (and (and (not (= x98 x95)) (and (not (= x151 x95)) (and (not (= x16 x51)) (and (not (= x98 x16)) (and (not (= x95 x16)) (not (= x16 x151))))))) (not (= x51 x95))) (not (= x151 x98))) (not (= x51 x151))) (not (= x98 x51))))
(assert (let ((x11 (x136 x151 x95)) (x130 (x136 x98 x151)) (x97 (x136 x95 x151)) (x58 (x136 x98 x95)) (x27 (x136 x98 x51)) (x84 (x136 x16 x51)) (x42 (x136 x95 x51)) (x63 (x136 x151 x151)) (x2 (x136 x51 x16)) (x139 (x136 x151 x16)) (x83 (x136 x16 x98)) (x123 (x136 x151 x98)) (x69 (x136 x98 x98)) (x78 (x136 x51 x95)) (x82 (x136 x98 x16)) (x111 (x136 x51 x98)) (x77 (x136 x151 x51)) (x159 (x136 x16 x16)) (x135 (x136 x95 x16)) (x79 (x136 x95 x98)) (x94 (x136 x51 x151)) (x30 (x136 x16 x151)) (x87 (x136 x95 x95)) (x81 (x136 x16 x95)) (x29 (x136 x51 x51))) (and (and (and (and (and (and (and (and (or (or (or (= x159 x151) (or (= x159 x95) (= x159 x16))) (= x98 x159)) (= x159 x51)) (or (= x81 x51) (or (= x98 x81) (or (= x81 x151) (or (= x81 x16) (= x95 x81)))))) (or (or (or (= x30 x151) (or (= x30 x95) (= x16 x30))) (= x98 x30)) (= x51 x30))) (or (or (or (= x151 x83) (or (= x83 x16) (= x83 x95))) (= x83 x98)) (= x83 x51))) (or (= x84 x51) (or (or (= x151 x84) (or (= x95 x84) (= x16 x84))) (= x84 x98)))) (and (or (= x42 x51) (or (= x98 x42) (or (or (= x42 x95) (= x42 x16)) (= x151 x42)))) (and (and (or (or (= x98 x97) (or (= x151 x97) (or (= x97 x95) (= x16 x97)))) (= x51 x97)) (and (or (= x51 x87) (or (= x98 x87) (or (= x151 x87) (or (= x87 x16) (= x87 x95))))) (or (= x135 x51) (or (= x135 x98) (or (= x135 x151) (or (= x135 x16) (= x95 x135))))))) (or (or (= x98 x79) (or (= x151 x79) (or (= x95 x79) (= x16 x79)))) (= x79 x51))))) (and (or (or (or (= x151 x77) (or (= x16 x77) (= x77 x95))) (= x77 x98)) (= x51 x77)) (and (or (= x123 x51) (or (= x98 x123) (or (= x123 x151) (or (= x95 x123) (= x16 x123))))) (and (or (or (= x98 x63) (or (or (= x63 x95) (= x16 x63)) (= x63 x151))) (= x63 x51)) (and (or (or (or (or (= x11 x95) (= x11 x16)) (= x151 x11)) (= x11 x98)) (= x51 x11)) (or (= x51 x139) (or (or (= x139 x151) (or (= x95 x139) (= x139 x16))) (= x98 x139)))))))) (and (and (and (and (or (or (= x98 x58) (or (= x151 x58) (or (= x58 x16) (= x95 x58)))) (= x58 x51)) (or (or (= x98 x82) (or (= x82 x151) (or (= x82 x16) (= x82 x95)))) (= x51 x82))) (or (= x130 x51) (or (= x130 x98) (or (or (= x130 x95) (= x16 x130)) (= x151 x130))))) (or (= x69 x51) (or (or (or (= x69 x95) (= x69 x16)) (= x151 x69)) (= x69 x98)))) (or (= x27 x51) (or (or (= x151 x27) (or (= x27 x16) (= x95 x27))) (= x98 x27))))) (and (and (and (or (or (or (= x151 x94) (or (= x95 x94) (= x16 x94))) (= x98 x94)) (= x51 x94)) (and (or (or (= x98 x2) (or (= x2 x151) (or (= x2 x16) (= x2 x95)))) (= x51 x2)) (or (or (= x98 x78) (or (or (= x78 x16) (= x95 x78)) (= x151 x78))) (= x51 x78)))) (or (= x111 x51) (or (= x98 x111) (or (= x111 x151) (or (= x95 x111) (= x16 x111)))))) (or (= x29 x51) (or (or (or (= x95 x29) (= x29 x16)) (= x29 x151)) (= x98 x29)))))))
(assert (and (and (= (x136 x151 x16) x98) (and (= x16 (x136 x151 x151)) (= (x136 x95 x95) x151))) (= x51 (x136 x98 x98))))
(assert (let ((x129 (x136 x51 x16)) (x48 (x136 x95 x16)) (x155 (x136 x51 x151)) (x54 (x136 x151 x51)) (x126 (x136 x151 x151)) (x8 (x136 x16 x98)) (x86 (x136 x151 x95)) (x13 (x136 x16 x16)) (x101 (x136 x16 x151)) (x4 (x136 x95 x98)) (x110 (x136 x98 x98)) (x113 (x136 x95 x51)) (x23 (x136 x151 x16)) (x140 (x136 x95 x151)) (x118 (x136 x16 x51)) (x88 (x136 x16 x95)) (x6 (x136 x98 x16)) (x156 (x136 x51 x98)) (x142 (x136 x151 x98)) (x124 (x136 x98 x95)) (x85 (x136 x95 x95)) (x41 (x136 x51 x95)) (x107 (x136 x98 x51)) (x66 (x136 x98 x151)) (x149 (x136 x51 x51))) (let ((x73 (= x85 x151)) (x109 (= x13 x51)) (x69 (= x41 x16)) (x45 (= x151 x86)) (x28 (= x66 x51)) (x153 (= x124 x51)) (x152 (= x88 x51)) (x117 (= x51 x129)) (x99 (= x151 x118)) (x35 (= x101 x151)) (x67 (= x88 x151)) (x90 (= x95 x149)) (x134 (= x126 x95)) (x150 (= x85 x95)) (x43 (= x110 x151)) (x19 (= x98 x126)) (x87 (= x86 x16)) (x37 (= x140 x51)) (x36 (= x6 x98)) (x96 (= x51 x101)) (x100 (= x113 x51)) (x33 (= x95 x124)) (x74 (= x98 x54)) (x32 (= x124 x151)) (x103 (= x51 x149)) (x147 (= x98 x142)) (x50 (= x110 x51)) (x79 (= x16 x126)) (x65 (= x41 x151)) (x93 (= x41 x51)) (x70 (= x156 x98)) (x15 (= x151 x129)) (x42 (= x6 x16)) (x125 (= x48 x151)) (x91 (= x95 x129)) (x68 (= x142 x95)) (x157 (= x98 x113)) (x94 (= x156 x16)) (x18 (= x98 x129)) (x53 (= x155 x151)) (x10 (= x51 x48)) (x38 (= x51 x126)) (x144 (= x151 x66)) (x24 (= x151 x149)) (x61 (= x6 x51)) (x81 (= x48 x16)) (x14 (= x95 x8)) (x56 (= x107 x51)) (x108 (= x118 x51)) (x40 (= x4 x95)) (x57 (= x151 x126)) (x121 (= x140 x151)) (x71 (= x95 x23)) (x34 (= x8 x98)) (x131 (= x95 x54)) (x130 (= x118 x16)) (x114 (= x95 x66)) (x116 (= x151 x107)) (x49 (= x98 x101)) (x120 (= x151 x13)) (x104 (= x151 x113)) (x89 (= x95 x86)) (x75 (= x4 x98)) (x84 (= x16 x23)) (x135 (= x16 x101)) (x11 (= x124 x16)) (x143 (= x98 x140)) (x62 (= x156 x51)) (x58 (= x16 x129)) (x154 (= x98 x110)) (x31 (= x107 x95)) (x22 (= x51 x155)) (x76 (= x8 x51)) (x63 (= x4 x16)) (x47 (= x95 x118)) (x132 (= x4 x151)) (x5 (= x101 x95)) (x80 (= x98 x155)) (x92 (= x142 x151)) (x115 (= x155 x95)) (x30 (= x88 x16)) (x12 (= x140 x95)) (x78 (= x16 x54)) (x27 (= x113 x16)) (x25 (= x95 x113)) (x83 (= x85 x16)) (x141 (= x54 x151)) (x29 (= x16 x149)) (x159 (= x13 x16)) (x128 (= x23 x51)) (x17 (= x98 x88)) (x55 (= x85 x98)) (x127 (= x98 x118)) (x39 (= x107 x98)) (x7 (= x98 x48)) (x97 (= x16 x140)) (x1 (= x95 x48)) (x59 (= x156 x95)) (x158 (= x51 x4)) (x145 (= x23 x151)) (x133 (= x13 x95)) (x3 (= x51 x85)) (x111 (= x16 x107)) (x138 (= x51 x54)) (x77 (= x16 x142)) (x21 (= x110 x95)) (x2 (= x16 x155)) (x26 (= x98 x66)) (x64 (= x95 x88)) (x72 (= x6 x151)) (x146 (= x51 x142)) (x106 (= x98 x149)) (x122 (= x13 x98)) (x137 (= x98 x86)) (x119 (= x86 x51)) (x139 (= x8 x16)) (x82 (= x16 x110)) (x9 (= x151 x8)) (x123 (= x66 x16)) (x60 (= x95 x41)) (x148 (= x23 x98)) (x102 (= x95 x6)) (x46 (= x151 x156)) (x52 (= x124 x98)) (x105 (= x41 x98))) (and (and (or (or (and x106 x106) (or (or (or (and x105 x157) (and x18 x127)) (and x80 x74)) (and x70 x39))) (or (or (or (or (or (or (and x143 x137) (or (and x17 x7) (and x55 x55))) (and x52 x75)) (and x157 x105)) (or (or (or (or (and x122 x122) (and x7 x17)) (and x49 x148)) (and x36 x34)) (and x18 x127))) (or (or (or (and x19 x19) (or (and x49 x148) (and x143 x137))) (and x147 x26)) (and x80 x74))) (or (and x70 x39) (or (and x154 x154) (or (or (and x75 x52) (and x36 x34)) (and x26 x147)))))) (and (and (or (or (or (or (or (or (and x102 x14) (and x33 x40)) (and x114 x68)) (and x21 x21)) (and x59 x31)) (or (or (or (or (or (and x12 x89) (or (and x150 x150) (and x64 x1))) (and x33 x40)) (and x25 x60)) (or (or (or (or (and x1 x64) (and x133 x133)) (and x71 x5)) (and x14 x102)) (and x91 x47))) (or (or (and x114 x68) (or (or (and x71 x5) (and x12 x89)) (and x134 x134))) (and x131 x115)))) (or (and x90 x90) (or (and x59 x31) (or (or (and x60 x25) (and x91 x47)) (and x131 x115))))) (or (or (and x29 x29) (or (and x94 x111) (or (or (and x130 x58) (and x27 x69)) (and x78 x2)))) (or (or (and x94 x111) (or (and x82 x82) (or (and x123 x77) (or (and x11 x63) (and x139 x42))))) (or (or (or (and x130 x58) (or (or (and x135 x84) (or (and x81 x30) (and x159 x159))) (and x42 x139))) (or (and x27 x69) (or (and x63 x11) (or (or (and x81 x30) (and x83 x83)) (and x87 x97))))) (or (or (or (and x79 x79) (or (and x135 x84) (and x87 x97))) (and x77 x123)) (and x78 x2)))))) (or (or (or (and x46 x116) (or (and x43 x43) (or (or (and x32 x132) (and x9 x72)) (and x144 x92)))) (or (or (or (or (or (or (and x67 x125) (and x120 x120)) (and x35 x145)) (and x9 x72)) (and x15 x99)) (or (and x104 x65) (or (and x132 x32) (or (and x121 x45) (or (and x73 x73) (and x67 x125)))))) (or (and x141 x53) (or (or (or (and x121 x45) (and x145 x35)) (and x57 x57)) (and x92 x144))))) (or (and x24 x24) (or (or (or (and x99 x15) (and x65 x104)) (and x141 x53)) (and x46 x116)))))) (or (or (or (or (or (or (or (or (and x10 x152) (and x3 x3)) (and x119 x37)) (and x158 x153)) (and x93 x100)) (or (and x108 x117) (or (and x61 x76) (or (or (and x10 x152) (and x109 x109)) (and x96 x128))))) (or (and x22 x138) (or (and x146 x28) (or (or (and x96 x128) (and x119 x37)) (and x38 x38))))) (or (or (or (and x146 x28) (or (and x76 x61) (and x153 x158))) (and x50 x50)) (and x62 x56))) (or (and x103 x103) (or (and x62 x56) (or (or (and x117 x108) (and x100 x93)) (and x138 x22)))))))))
(assert (let ((x78 (x136 x95 x51)) (x133 (x136 x51 x95)) (x121 (x136 x51 x98)) (x127 (x136 x51 x51)) (x84 (x136 x16 x98)) (x135 (x136 x16 x51)) (x113 (x136 x151 x151)) (x79 (x136 x151 x16)) (x30 (x136 x16 x95)) (x27 (x136 x95 x151)) (x81 (x136 x16 x16)) (x2 (x136 x95 x98)) (x83 (x136 x16 x151)) (x42 (x136 x98 x16)) (x125 (x136 x98 x98)) (x67 (x136 x98 x51)) (x126 (x136 x98 x151)) (x134 (x136 x51 x151)) (x71 (x136 x151 x51)) (x97 (x136 x95 x16)) (x139 (x136 x51 x16)) (x13 (x136 x98 x95)) (x69 (x136 x95 x95)) (x41 (x136 x151 x98)) (x29 (x136 x151 x95))) (let ((x6 (= x98 x69)) (x17 (= x51 x41)) (x68 (= x98 x113)) (x129 (= x51 x30)) (x82 (= x30 x16)) (x117 (= x139 x51)) (x3 (= x78 x151)) (x140 (= x16 x27)) (x142 (= x79 x151)) (x60 (= x13 x16)) (x158 (= x78 x98)) (x70 (= x95 x127)) (x52 (= x16 x67)) (x128 (= x71 x151)) (x149 (= x42 x95)) (x114 (= x98 x27)) (x53 (= x98 x41)) (x61 (= x98 x134)) (x55 (= x51 x125)) (x96 (= x151 x67)) (x45 (= x95 x125)) (x12 (= x95 x113)) (x7 (= x51 x2)) (x28 (= x98 x71)) (x89 (= x27 x95)) (x35 (= x41 x95)) (x18 (= x95 x121)) (x157 (= x95 x78)) (x132 (= x2 x151)) (x111 (= x69 x95)) (x115 (= x84 x16)) (x34 (= x71 x16)) (x101 (= x151 x69)) (x104 (= x2 x98)) (x15 (= x13 x98)) (x153 (= x135 x98)) (x21 (= x29 x51)) (x25 (= x16 x126)) (x150 (= x83 x16)) (x154 (= x95 x134)) (x59 (= x41 x16)) (x74 (= x67 x95)) (x159 (= x16 x81)) (x147 (= x133 x95)) (x56 (= x67 x51)) (x105 (= x135 x95)) (x75 (= x16 x127)) (x64 (= x16 x79)) (x33 (= x98 x29)) (x108 (= x133 x51)) (x156 (= x27 x51)) (x80 (= x95 x71)) (x54 (= x151 x83)) (x91 (= x113 x51)) (x9 (= x151 x126)) (x92 (= x125 x151)) (x141 (= x98 x125)) (x77 (= x97 x16)) (x65 (= x98 x84)) (x144 (= x41 x151)) (x58 (= x69 x16)) (x137 (= x134 x16)) (x155 (= x27 x151)) (x26 (= x139 x95)) (x85 (= x29 x16)) (x48 (= x30 x151)) (x31 (= x16 x125)) (x72 (= x13 x151)) (x11 (= x81 x151)) (x138 (= x78 x51)) (x107 (= x83 x51)) (x50 (= x98 x127)) (x63 (= x98 x81)) (x32 (= x84 x151)) (x148 (= x16 x139)) (x43 (= x42 x98)) (x106 (= x151 x133)) (x143 (= x121 x16)) (x94 (= x95 x30)) (x131 (= x16 x2)) (x90 (= x13 x95)) (x99 (= x98 x126)) (x88 (= x151 x97)) (x57 (= x151 x42)) (x38 (= x133 x98)) (x24 (= x126 x51)) (x123 (= x51 x81)) (x49 (= x16 x133)) (x46 (= x51 x42)) (x10 (= x121 x151)) (x62 (= x51 x71)) (x37 (= x98 x139)) (x124 (= x95 x29)) (x152 (= x151 x135)) (x4 (= x79 x95)) (x86 (= x113 x16)) (x22 (= x135 x51)) (x5 (= x83 x95)) (x14 (= x79 x98)) (x87 (= x95 x81)) (x36 (= x78 x16)) (x40 (= x83 x98)) (x118 (= x51 x97)) (x19 (= x16 x135)) (x102 (= x113 x151)) (x116 (= x51 x13)) (x120 (= x95 x126)) (x73 (= x84 x95)) (x76 (= x121 x98)) (x103 (= x51 x127)) (x100 (= x51 x121)) (x119 (= x127 x151)) (x23 (= x98 x97)) (x39 (= x151 x139)) (x109 (= x151 x134)) (x146 (= x98 x67)) (x130 (= x95 x97)) (x66 (= x29 x151)) (x1 (= x69 x51)) (x93 (= x51 x134)) (x110 (= x79 x51)) (x47 (= x16 x42)) (x122 (= x84 x51)) (x145 (= x2 x95)) (x8 (= x30 x98))) (and (and (and (and (and (and (and (or (or (or x14 (or x23 x63)) x43) x37) (or (or (or x40 (or x8 x63)) x65) x153)) (and (and (or (or x32 (or (or x48 x11) x54)) x152) (or (or x57 (or (or x11 x88) x142)) x39)) (and (and (or x105 (or x73 (or (or x87 x94) x5))) (or (or (or (or x87 x130) x4) x149) x26)) (and (or (or x47 (or x64 (or x77 x159))) x148) (or (or x115 (or (or x82 x159) x150)) x19))))) (and (or (or (or x107 (or x123 x129)) x122) x22) (or (or x46 (or (or x118 x123) x110)) x117))) (and (and (or (or x7 (or x156 (or x1 x118))) x138) (or (or (or (or x129 x1) x21) x116) x108)) (and (and (and (or (or x72 (or (or x101 x48) x66)) x106) (or (or (or (or x101 x88) x155) x132) x3)) (and (and (or (or (or x85 (or x82 x58)) x60) x49) (or (or (or x140 (or x77 x58)) x131) x36)) (and (or x157 (or x145 (or x89 (or x111 x130)))) (or x147 (or (or x124 (or x111 x94)) x90))))) (and (or x158 (or x104 (or (or x23 x6) x114))) (or x38 (or (or (or x6 x8) x33) x15)))))) (and (and (or (or (or x91 (or x156 x107)) x24) x93) (or (or x17 (or (or x21 x110) x91)) x62)) (and (and (and (and (or (or x120 (or (or x5 x89) x12)) x154) (or (or (or x12 (or x4 x124)) x35) x80)) (and (or x137 (or (or (or x150 x140) x86) x25)) (or (or (or (or x85 x64) x86) x59) x34))) (and (or x128 (or (or (or x66 x142) x102) x144)) (or (or x9 (or (or x54 x155) x102)) x109))) (and (or (or (or (or x40 x114) x68) x99) x61) (or (or (or x68 (or x14 x33)) x53) x28))))) (and (and (or (or (or x24 (or x116 x46)) x55) x56) (or x100 (or x55 (or (or x122 x7) x17)))) (and (and (and (or x96 (or x92 (or x9 (or x72 x57)))) (or (or (or x144 (or x32 x132)) x92) x10)) (and (and (or x74 (or x45 (or (or x149 x90) x120))) (or (or x45 (or x35 (or x145 x73))) x18)) (and (or x52 (or x31 (or x25 (or x47 x60)))) (or x143 (or (or x59 (or x115 x131)) x31))))) (and (or (or (or x99 (or x15 x43)) x141) x146) (or x76 (or x141 (or x53 (or x65 x104)))))))) (and (and (or x103 (or (or (or x138 x22) x62) x56)) (or x103 (or x100 (or (or x117 x108) x93)))) (and (and (or (or (or (or x37 x38) x61) x76) x50) (or x50 (or x146 (or (or x153 x158) x28)))) (and (and (or x119 (or (or (or x3 x152) x128) x96)) (or (or (or (or x106 x39) x109) x10) x119)) (and (and (or x75 (or (or (or x19 x36) x34) x52)) (or x75 (or (or x137 (or x49 x148)) x143))) (and (or (or (or (or x157 x105) x80) x74) x70) (or (or x18 (or x154 (or x26 x147))) x70))))))))))
(assert (or (or (= x98 (x136 x98 x98)) (or (or (= x16 (x136 x16 x16)) (= (x136 x95 x95) x95)) (= x151 (x136 x151 x151)))) (= x51 (x136 x51 x51))))
(assert (not (and (and (and (and (and (and (= (x136 x98 x51) x95) (and (= x51 (x136 x98 x98)) (and (= (x136 x98 x151) x98) (and (and (and (and (and (= (x136 x151 x151) x16) (and (= x95 (x136 x151 x95)) (and (and (= (x136 x95 x51) x98) (and (= (x136 x95 x98) x16) (and (and (and (and (= x151 (x136 x16 x51)) (and (= x98 (x136 x16 x98)) (and (= x95 (x136 x16 x151)) (and (= x51 (x136 x16 x95)) (= (x136 x16 x16) x16))))) (= x95 (x136 x95 x16))) (= x151 (x136 x95 x95))) (= (x136 x95 x151) x51)))) (= x98 (x136 x151 x16))))) (= x151 (x136 x151 x98))) (= x51 (x136 x151 x51))) (= x151 (x136 x98 x16))) (= (x136 x98 x95) x16))))) (= (x136 x51 x16) x51)) (= x98 (x136 x51 x95))) (= x151 (x136 x51 x151))) (= (x136 x51 x98) x95)) (= (x136 x51 x51) x16))))
(assert (or (or (and (not (= (x136 (x136 x98 x51) x98) x51)) (and (not (= x98 (x136 (x136 x98 x98) x98))) (and (and (not (= x16 (x136 (x136 x98 x16) x98))) (not (= (x136 (x136 x98 x95) x98) x95))) (not (= (x136 (x136 x98 x151) x98) x151))))) (or (and (not (= x51 (x136 (x136 x151 x51) x151))) (and (not (= x98 (x136 (x136 x151 x98) x151))) (and (and (not (= x16 (x136 (x136 x151 x16) x151))) (not (= x95 (x136 (x136 x151 x95) x151)))) (not (= x151 (x136 (x136 x151 x151) x151)))))) (or (and (and (not (= x98 (x136 (x136 x95 x98) x95))) (and (and (not (= (x136 (x136 x95 x95) x95) x95)) (not (= x16 (x136 (x136 x95 x16) x95)))) (not (= (x136 (x136 x95 x151) x95) x151)))) (not (= x51 (x136 (x136 x95 x51) x95)))) (and (and (not (= (x136 (x136 x16 x98) x16) x98)) (and (and (not (= (x136 (x136 x16 x16) x16) x16)) (not (= (x136 (x136 x16 x95) x16) x95))) (not (= x151 (x136 (x136 x16 x151) x16))))) (not (= x51 (x136 (x136 x16 x51) x16))))))) (and (not (= (x136 (x136 x51 x51) x51) x51)) (and (and (not (= x151 (x136 (x136 x51 x151) x51))) (and (not (= x16 (x136 (x136 x51 x16) x51))) (not (= x95 (x136 (x136 x51 x95) x51))))) (not (= (x136 (x136 x51 x98) x51) x98))))))
(assert (and (and (and (or (= (x136 x51 (x136 x151 x51)) x151) (or (= x151 (x136 x98 (x136 x151 x98))) (or (or (= (x136 x16 (x136 x151 x16)) x151) (= (x136 x95 (x136 x151 x95)) x151)) (= x151 (x136 x151 (x136 x151 x151)))))) (and (or (or (or (= (x136 x151 (x136 x95 x151)) x95) (or (= (x136 x16 (x136 x95 x16)) x95) (= (x136 x95 (x136 x95 x95)) x95))) (= x95 (x136 x98 (x136 x95 x98)))) (= x95 (x136 x51 (x136 x95 x51)))) (or (= x16 (x136 x51 (x136 x16 x51))) (or (or (= (x136 x151 (x136 x16 x151)) x16) (or (= x16 (x136 x16 (x136 x16 x16))) (= x16 (x136 x95 (x136 x16 x95))))) (= (x136 x98 (x136 x16 x98)) x16))))) (or (or (= x98 (x136 x98 (x136 x98 x98))) (or (= x98 (x136 x151 (x136 x98 x151))) (or (= (x136 x95 (x136 x98 x95)) x98) (= x98 (x136 x16 (x136 x98 x16)))))) (= (x136 x51 (x136 x98 x51)) x98))) (or (= x51 (x136 x51 (x136 x51 x51))) (or (= (x136 x98 (x136 x51 x98)) x51) (or (or (= (x136 x95 (x136 x51 x95)) x51) (= x51 (x136 x16 (x136 x51 x16)))) (= (x136 x151 (x136 x51 x151)) x51))))))
(assert (let ((x83 (x136 x98 x98)) (x84 (x136 x51 x51)) (x30 (x136 x151 x151)) (x81 (x136 x95 x95)) (x159 (x136 x16 x16))) (or (and (not (= x51 x84)) (and (not (= x83 x51)) (and (and (not (= x159 x51)) (not (= x51 x81))) (not (= x51 x30))))) (or (or (and (not (= x151 x84)) (and (and (and (not (= x151 x159)) (not (= x81 x151))) (not (= x151 x30))) (not (= x151 x83)))) (or (and (not (= x84 x95)) (and (and (not (= x30 x95)) (and (not (= x81 x95)) (not (= x95 x159)))) (not (= x83 x95)))) (and (and (and (not (= x16 x30)) (and (not (= x16 x159)) (not (= x81 x16)))) (not (= x83 x16))) (not (= x16 x84))))) (and (not (= x98 x84)) (and (not (= x83 x98)) (and (not (= x98 x30)) (and (not (= x159 x98)) (not (= x98 x81))))))))))
(check-sat)
(exit)
